2995 264
202 233
981 848
1346 408
781 670
1009 1001
2927 1777
2982 949
555 1121
464 1302
3452 637
571 1982
2656 128
1623 1723
2067 694
1725 927
3600 459
1109 1196
366 339
778 1282
